p cnf 150 980
1 2 3 4 5 0
6 7 8 9 10 0
11 12 13 14 15 0
16 17 18 19 20 0
21 22 23 24 25 0
26 27 28 29 30 0
31 32 33 34 35 0
36 37 38 39 40 0
41 42 43 44 45 0
46 47 48 49 50 0
51 52 53 54 55 0
56 57 58 59 60 0
61 62 63 64 65 0
66 67 68 69 70 0
71 72 73 74 75 0
76 77 78 79 80 0
81 82 83 84 85 0
86 87 88 89 90 0
91 92 93 94 95 0
96 97 98 99 100 0
101 102 103 104 105 0
106 107 108 109 110 0
111 112 113 114 115 0
116 117 118 119 120 0
121 122 123 124 125 0
126 127 128 129 130 0
131 132 133 134 135 0
136 137 138 139 140 0
141 142 143 144 145 0
146 147 148 149 150 0
-1 -2 0
-1 -3 0
-1 -4 0
-1 -5 0
-2 -3 0
-2 -4 0
-2 -5 0
-3 -4 0
-3 -5 0
-4 -5 0
-6 -7 0
-6 -8 0
-6 -9 0
-6 -10 0
-7 -8 0
-7 -9 0
-7 -10 0
-8 -9 0
-8 -10 0
-9 -10 0
-11 -12 0
-11 -13 0
-11 -14 0
-11 -15 0
-12 -13 0
-12 -14 0
-12 -15 0
-13 -14 0
-13 -15 0
-14 -15 0
-16 -17 0
-16 -18 0
-16 -19 0
-16 -20 0
-17 -18 0
-17 -19 0
-17 -20 0
-18 -19 0
-18 -20 0
-19 -20 0
-21 -22 0
-21 -23 0
-21 -24 0
-21 -25 0
-22 -23 0
-22 -24 0
-22 -25 0
-23 -24 0
-23 -25 0
-24 -25 0
-26 -27 0
-26 -28 0
-26 -29 0
-26 -30 0
-27 -28 0
-27 -29 0
-27 -30 0
-28 -29 0
-28 -30 0
-29 -30 0
-31 -32 0
-31 -33 0
-31 -34 0
-31 -35 0
-32 -33 0
-32 -34 0
-32 -35 0
-33 -34 0
-33 -35 0
-34 -35 0
-36 -37 0
-36 -38 0
-36 -39 0
-36 -40 0
-37 -38 0
-37 -39 0
-37 -40 0
-38 -39 0
-38 -40 0
-39 -40 0
-41 -42 0
-41 -43 0
-41 -44 0
-41 -45 0
-42 -43 0
-42 -44 0
-42 -45 0
-43 -44 0
-43 -45 0
-44 -45 0
-46 -47 0
-46 -48 0
-46 -49 0
-46 -50 0
-47 -48 0
-47 -49 0
-47 -50 0
-48 -49 0
-48 -50 0
-49 -50 0
-51 -52 0
-51 -53 0
-51 -54 0
-51 -55 0
-52 -53 0
-52 -54 0
-52 -55 0
-53 -54 0
-53 -55 0
-54 -55 0
-56 -57 0
-56 -58 0
-56 -59 0
-56 -60 0
-57 -58 0
-57 -59 0
-57 -60 0
-58 -59 0
-58 -60 0
-59 -60 0
-61 -62 0
-61 -63 0
-61 -64 0
-61 -65 0
-62 -63 0
-62 -64 0
-62 -65 0
-63 -64 0
-63 -65 0
-64 -65 0
-66 -67 0
-66 -68 0
-66 -69 0
-66 -70 0
-67 -68 0
-67 -69 0
-67 -70 0
-68 -69 0
-68 -70 0
-69 -70 0
-71 -72 0
-71 -73 0
-71 -74 0
-71 -75 0
-72 -73 0
-72 -74 0
-72 -75 0
-73 -74 0
-73 -75 0
-74 -75 0
-76 -77 0
-76 -78 0
-76 -79 0
-76 -80 0
-77 -78 0
-77 -79 0
-77 -80 0
-78 -79 0
-78 -80 0
-79 -80 0
-81 -82 0
-81 -83 0
-81 -84 0
-81 -85 0
-82 -83 0
-82 -84 0
-82 -85 0
-83 -84 0
-83 -85 0
-84 -85 0
-86 -87 0
-86 -88 0
-86 -89 0
-86 -90 0
-87 -88 0
-87 -89 0
-87 -90 0
-88 -89 0
-88 -90 0
-89 -90 0
-91 -92 0
-91 -93 0
-91 -94 0
-91 -95 0
-92 -93 0
-92 -94 0
-92 -95 0
-93 -94 0
-93 -95 0
-94 -95 0
-96 -97 0
-96 -98 0
-96 -99 0
-96 -100 0
-97 -98 0
-97 -99 0
-97 -100 0
-98 -99 0
-98 -100 0
-99 -100 0
-101 -102 0
-101 -103 0
-101 -104 0
-101 -105 0
-102 -103 0
-102 -104 0
-102 -105 0
-103 -104 0
-103 -105 0
-104 -105 0
-106 -107 0
-106 -108 0
-106 -109 0
-106 -110 0
-107 -108 0
-107 -109 0
-107 -110 0
-108 -109 0
-108 -110 0
-109 -110 0
-111 -112 0
-111 -113 0
-111 -114 0
-111 -115 0
-112 -113 0
-112 -114 0
-112 -115 0
-113 -114 0
-113 -115 0
-114 -115 0
-116 -117 0
-116 -118 0
-116 -119 0
-116 -120 0
-117 -118 0
-117 -119 0
-117 -120 0
-118 -119 0
-118 -120 0
-119 -120 0
-121 -122 0
-121 -123 0
-121 -124 0
-121 -125 0
-122 -123 0
-122 -124 0
-122 -125 0
-123 -124 0
-123 -125 0
-124 -125 0
-126 -127 0
-126 -128 0
-126 -129 0
-126 -130 0
-127 -128 0
-127 -129 0
-127 -130 0
-128 -129 0
-128 -130 0
-129 -130 0
-131 -132 0
-131 -133 0
-131 -134 0
-131 -135 0
-132 -133 0
-132 -134 0
-132 -135 0
-133 -134 0
-133 -135 0
-134 -135 0
-136 -137 0
-136 -138 0
-136 -139 0
-136 -140 0
-137 -138 0
-137 -139 0
-137 -140 0
-138 -139 0
-138 -140 0
-139 -140 0
-141 -142 0
-141 -143 0
-141 -144 0
-141 -145 0
-142 -143 0
-142 -144 0
-142 -145 0
-143 -144 0
-143 -145 0
-144 -145 0
-146 -147 0
-146 -148 0
-146 -149 0
-146 -150 0
-147 -148 0
-147 -149 0
-147 -150 0
-148 -149 0
-148 -150 0
-149 -150 0
-1 -11 0
-2 -12 0
-3 -13 0
-4 -14 0
-5 -15 0
-1 -21 0
-2 -22 0
-3 -23 0
-4 -24 0
-5 -25 0
-1 -31 0
-2 -32 0
-3 -33 0
-4 -34 0
-5 -35 0
-1 -41 0
-2 -42 0
-3 -43 0
-4 -44 0
-5 -45 0
-1 -46 0
-2 -47 0
-3 -48 0
-4 -49 0
-5 -50 0
-1 -56 0
-2 -57 0
-3 -58 0
-4 -59 0
-5 -60 0
-1 -111 0
-2 -112 0
-3 -113 0
-4 -114 0
-5 -115 0
-1 -131 0
-2 -132 0
-3 -133 0
-4 -134 0
-5 -135 0
-6 -11 0
-7 -12 0
-8 -13 0
-9 -14 0
-10 -15 0
-6 -26 0
-7 -27 0
-8 -28 0
-9 -29 0
-10 -30 0
-6 -36 0
-7 -37 0
-8 -38 0
-9 -39 0
-10 -40 0
-6 -51 0
-7 -52 0
-8 -53 0
-9 -54 0
-10 -55 0
-6 -131 0
-7 -132 0
-8 -133 0
-9 -134 0
-10 -135 0
-11 -16 0
-12 -17 0
-13 -18 0
-14 -19 0
-15 -20 0
-11 -41 0
-12 -42 0
-13 -43 0
-14 -44 0
-15 -45 0
-11 -61 0
-12 -62 0
-13 -63 0
-14 -64 0
-15 -65 0
-11 -66 0
-12 -67 0
-13 -68 0
-14 -69 0
-15 -70 0
-11 -81 0
-12 -82 0
-13 -83 0
-14 -84 0
-15 -85 0
-11 -86 0
-12 -87 0
-13 -88 0
-14 -89 0
-15 -90 0
-11 -111 0
-12 -112 0
-13 -113 0
-14 -114 0
-15 -115 0
-11 -121 0
-12 -122 0
-13 -123 0
-14 -124 0
-15 -125 0
-11 -146 0
-12 -147 0
-13 -148 0
-14 -149 0
-15 -150 0
-16 -21 0
-17 -22 0
-18 -23 0
-19 -24 0
-20 -25 0
-16 -31 0
-17 -32 0
-18 -33 0
-19 -34 0
-20 -35 0
-16 -41 0
-17 -42 0
-18 -43 0
-19 -44 0
-20 -45 0
-16 -66 0
-17 -67 0
-18 -68 0
-19 -69 0
-20 -70 0
-16 -71 0
-17 -72 0
-18 -73 0
-19 -74 0
-20 -75 0
-16 -96 0
-17 -97 0
-18 -98 0
-19 -99 0
-20 -100 0
-16 -121 0
-17 -122 0
-18 -123 0
-19 -124 0
-20 -125 0
-16 -131 0
-17 -132 0
-18 -133 0
-19 -134 0
-20 -135 0
-16 -146 0
-17 -147 0
-18 -148 0
-19 -149 0
-20 -150 0
-21 -51 0
-22 -52 0
-23 -53 0
-24 -54 0
-25 -55 0
-21 -126 0
-22 -127 0
-23 -128 0
-24 -129 0
-25 -130 0
-21 -131 0
-22 -132 0
-23 -133 0
-24 -134 0
-25 -135 0
-21 -146 0
-22 -147 0
-23 -148 0
-24 -149 0
-25 -150 0
-26 -36 0
-27 -37 0
-28 -38 0
-29 -39 0
-30 -40 0
-26 -46 0
-27 -47 0
-28 -48 0
-29 -49 0
-30 -50 0
-26 -96 0
-27 -97 0
-28 -98 0
-29 -99 0
-30 -100 0
-26 -101 0
-27 -102 0
-28 -103 0
-29 -104 0
-30 -105 0
-26 -136 0
-27 -137 0
-28 -138 0
-29 -139 0
-30 -140 0
-26 -141 0
-27 -142 0
-28 -143 0
-29 -144 0
-30 -145 0
-31 -41 0
-32 -42 0
-33 -43 0
-34 -44 0
-35 -45 0
-31 -56 0
-32 -57 0
-33 -58 0
-34 -59 0
-35 -60 0
-31 -71 0
-32 -72 0
-33 -73 0
-34 -74 0
-35 -75 0
-31 -76 0
-32 -77 0
-33 -78 0
-34 -79 0
-35 -80 0
-31 -96 0
-32 -97 0
-33 -98 0
-34 -99 0
-35 -100 0
-31 -101 0
-32 -102 0
-33 -103 0
-34 -104 0
-35 -105 0
-31 -111 0
-32 -112 0
-33 -113 0
-34 -114 0
-35 -115 0
-31 -136 0
-32 -137 0
-33 -138 0
-34 -139 0
-35 -140 0
-36 -66 0
-37 -67 0
-38 -68 0
-39 -69 0
-40 -70 0
-36 -86 0
-37 -87 0
-38 -88 0
-39 -89 0
-40 -90 0
-36 -106 0
-37 -107 0
-38 -108 0
-39 -109 0
-40 -110 0
-36 -121 0
-37 -122 0
-38 -123 0
-39 -124 0
-40 -125 0
-36 -136 0
-37 -137 0
-38 -138 0
-39 -139 0
-40 -140 0
-36 -141 0
-37 -142 0
-38 -143 0
-39 -144 0
-40 -145 0
-36 -146 0
-37 -147 0
-38 -148 0
-39 -149 0
-40 -150 0
-41 -66 0
-42 -67 0
-43 -68 0
-44 -69 0
-45 -70 0
-41 -81 0
-42 -82 0
-43 -83 0
-44 -84 0
-45 -85 0
-41 -91 0
-42 -92 0
-43 -93 0
-44 -94 0
-45 -95 0
-41 -101 0
-42 -102 0
-43 -103 0
-44 -104 0
-45 -105 0
-41 -106 0
-42 -107 0
-43 -108 0
-44 -109 0
-45 -110 0
-41 -121 0
-42 -122 0
-43 -123 0
-44 -124 0
-45 -125 0
-41 -126 0
-42 -127 0
-43 -128 0
-44 -129 0
-45 -130 0
-41 -131 0
-42 -132 0
-43 -133 0
-44 -134 0
-45 -135 0
-46 -71 0
-47 -72 0
-48 -73 0
-49 -74 0
-50 -75 0
-46 -81 0
-47 -82 0
-48 -83 0
-49 -84 0
-50 -85 0
-46 -101 0
-47 -102 0
-48 -103 0
-49 -104 0
-50 -105 0
-46 -111 0
-47 -112 0
-48 -113 0
-49 -114 0
-50 -115 0
-46 -121 0
-47 -122 0
-48 -123 0
-49 -124 0
-50 -125 0
-46 -126 0
-47 -127 0
-48 -128 0
-49 -129 0
-50 -130 0
-46 -131 0
-47 -132 0
-48 -133 0
-49 -134 0
-50 -135 0
-46 -136 0
-47 -137 0
-48 -138 0
-49 -139 0
-50 -140 0
-51 -56 0
-52 -57 0
-53 -58 0
-54 -59 0
-55 -60 0
-51 -66 0
-52 -67 0
-53 -68 0
-54 -69 0
-55 -70 0
-51 -81 0
-52 -82 0
-53 -83 0
-54 -84 0
-55 -85 0
-56 -61 0
-57 -62 0
-58 -63 0
-59 -64 0
-60 -65 0
-56 -66 0
-57 -67 0
-58 -68 0
-59 -69 0
-60 -70 0
-56 -81 0
-57 -82 0
-58 -83 0
-59 -84 0
-60 -85 0
-56 -86 0
-57 -87 0
-58 -88 0
-59 -89 0
-60 -90 0
-56 -91 0
-57 -92 0
-58 -93 0
-59 -94 0
-60 -95 0
-56 -101 0
-57 -102 0
-58 -103 0
-59 -104 0
-60 -105 0
-56 -141 0
-57 -142 0
-58 -143 0
-59 -144 0
-60 -145 0
-61 -66 0
-62 -67 0
-63 -68 0
-64 -69 0
-65 -70 0
-61 -71 0
-62 -72 0
-63 -73 0
-64 -74 0
-65 -75 0
-61 -76 0
-62 -77 0
-63 -78 0
-64 -79 0
-65 -80 0
-61 -86 0
-62 -87 0
-63 -88 0
-64 -89 0
-65 -90 0
-61 -96 0
-62 -97 0
-63 -98 0
-64 -99 0
-65 -100 0
-61 -111 0
-62 -112 0
-63 -113 0
-64 -114 0
-65 -115 0
-61 -141 0
-62 -142 0
-63 -143 0
-64 -144 0
-65 -145 0
-61 -146 0
-62 -147 0
-63 -148 0
-64 -149 0
-65 -150 0
-66 -81 0
-67 -82 0
-68 -83 0
-69 -84 0
-70 -85 0
-66 -106 0
-67 -107 0
-68 -108 0
-69 -109 0
-70 -110 0
-66 -111 0
-67 -112 0
-68 -113 0
-69 -114 0
-70 -115 0
-66 -116 0
-67 -117 0
-68 -118 0
-69 -119 0
-70 -120 0
-66 -131 0
-67 -132 0
-68 -133 0
-69 -134 0
-70 -135 0
-66 -141 0
-67 -142 0
-68 -143 0
-69 -144 0
-70 -145 0
-66 -146 0
-67 -147 0
-68 -148 0
-69 -149 0
-70 -150 0
-71 -116 0
-72 -117 0
-73 -118 0
-74 -119 0
-75 -120 0
-71 -121 0
-72 -122 0
-73 -123 0
-74 -124 0
-75 -125 0
-71 -131 0
-72 -132 0
-73 -133 0
-74 -134 0
-75 -135 0
-76 -91 0
-77 -92 0
-78 -93 0
-79 -94 0
-80 -95 0
-76 -101 0
-77 -102 0
-78 -103 0
-79 -104 0
-80 -105 0
-76 -126 0
-77 -127 0
-78 -128 0
-79 -129 0
-80 -130 0
-76 -131 0
-77 -132 0
-78 -133 0
-79 -134 0
-80 -135 0
-76 -136 0
-77 -137 0
-78 -138 0
-79 -139 0
-80 -140 0
-76 -141 0
-77 -142 0
-78 -143 0
-79 -144 0
-80 -145 0
-81 -131 0
-82 -132 0
-83 -133 0
-84 -134 0
-85 -135 0
-86 -101 0
-87 -102 0
-88 -103 0
-89 -104 0
-90 -105 0
-86 -116 0
-87 -117 0
-88 -118 0
-89 -119 0
-90 -120 0
-86 -131 0
-87 -132 0
-88 -133 0
-89 -134 0
-90 -135 0
-86 -146 0
-87 -147 0
-88 -148 0
-89 -149 0
-90 -150 0
-91 -96 0
-92 -97 0
-93 -98 0
-94 -99 0
-95 -100 0
-91 -106 0
-92 -107 0
-93 -108 0
-94 -109 0
-95 -110 0
-91 -111 0
-92 -112 0
-93 -113 0
-94 -114 0
-95 -115 0
-91 -121 0
-92 -122 0
-93 -123 0
-94 -124 0
-95 -125 0
-91 -136 0
-92 -137 0
-93 -138 0
-94 -139 0
-95 -140 0
-96 -126 0
-97 -127 0
-98 -128 0
-99 -129 0
-100 -130 0
-96 -131 0
-97 -132 0
-98 -133 0
-99 -134 0
-100 -135 0
-96 -141 0
-97 -142 0
-98 -143 0
-99 -144 0
-100 -145 0
-101 -106 0
-102 -107 0
-103 -108 0
-104 -109 0
-105 -110 0
-101 -131 0
-102 -132 0
-103 -133 0
-104 -134 0
-105 -135 0
-101 -136 0
-102 -137 0
-103 -138 0
-104 -139 0
-105 -140 0
-106 -121 0
-107 -122 0
-108 -123 0
-109 -124 0
-110 -125 0
-106 -126 0
-107 -127 0
-108 -128 0
-109 -129 0
-110 -130 0
-111 -126 0
-112 -127 0
-113 -128 0
-114 -129 0
-115 -130 0
-121 -146 0
-122 -147 0
-123 -148 0
-124 -149 0
-125 -150 0
-126 -136 0
-127 -137 0
-128 -138 0
-129 -139 0
-130 -140 0
-126 -146 0
-127 -147 0
-128 -148 0
-129 -149 0
-130 -150 0
-131 -136 0
-132 -137 0
-133 -138 0
-134 -139 0
-135 -140 0
-136 -146 0
-137 -147 0
-138 -148 0
-139 -149 0
-140 -150 0
